webassembly/ejemplos_dzn/folder7_json_83.dzn
TERM = { '.', 's(2)', 'in_1', 'in_6', 'in_2', 'in_4', 'in_3', 's(1)', 's(0)', 'in_5', 's(3)', 'in_0'};
null = '.';
s = 7;
n = 12;
ndeps = 6;
max_registers_sz = 3;
NR = 0;
registers = [| |];
dependencies = [|'i32.load16_s_0', 'i32.store8_1', |'i32.store8_1', 'i32.store16_2', |'i32.store16_2', 'i32.store8_3', |'i32.store8_3', 'i32.load8_u_4', |'i32.store8_3', 'i32.load_5', |'i32.store8_3', 'i32.load16_u_6'|];
GET_ENUM = { GET1, GET2, GET3};
SET_ENUM = { SET1, SET2, SET3};
TEE_ENUM = { TEE1, TEE2, TEE3};
N = 7;
OP = { 'i32.load16_s_0', 'i32.store8_1', 'i32.store16_2', 'i32.store8_3', 'i32.load8_u_4', 'i32.load_5', 'i32.load16_u_6' };
in_ops = [1, 2, 2, 2, 1, 1, 1 ];
out_ops = [1, 0, 0, 0, 1, 1, 1 ];
in1 = ['in_0', 's(0)', 'in_2', 'in_4', 'in_6', 's(1)', 's(2)' ];
in2 = ['.', 'in_1', 'in_3', 'in_5', '.', '.', '.' ];
in3 = ['.', '.', '.', '.', '.', '.', '.' ];
out1 = ['s(0)', '.', '.', '.', 's(1)', 's(2)', 's(3)' ];
out2 = ['.', '.', '.', '.', '.', '.', '.' ];
out3 = ['.', '.', '.', '.', '.', '.', '.' ];
comm = [false, false, false, false, false, false, false ];
gas = [1, 1, 1, 1, 1, 1, 1 ];
sz = [1, 1, 1, 1, 1, 1, 1 ];
stor = [false, true, true, true, false, false, false ];
lb = [ 1, 1, 1, 1, 1, 1, 1 ];
ub = [ 7, 7, 7, 7, 7, 7, 7 ];
startstack = [ 'in_0', 'in_1', 'in_2', 'in_3', 'in_4', 'in_5', 'in_6', null, null, null, null, null ];
endstack = [ 's(3)', null, null, null, null, null, null, null, null, null, null, null ];
