webassembly/ejemplos_results/folder7_json_83.txt
value = 7;
fgas = [1, 1, 1, 1, 1, 1, 1];
fsize = [1, 1, 1, 1, 1, 1, 1];
states = 
[|   in_0, in_1, in_2, in_3, in_4, in_5, in_6, '.', '.', '.', '.', '.'
 | 's(0)', in_1, in_2, in_3, in_4, in_5, in_6, '.', '.', '.', '.', '.'
 |   in_2, in_3, in_4, in_5, in_6,  '.',  '.', '.', '.', '.', '.', '.'
 |   in_4, in_5, in_6,  '.',  '.',  '.',  '.', '.', '.', '.', '.', '.'
 |   in_6,  '.',  '.',  '.',  '.',  '.',  '.', '.', '.', '.', '.', '.'
 | 's(1)', in_0,  '.',  '.',  '.',  '.',  '.', '.', '.', '.', '.', '.'
 | 's(2)', in_0,  '.',  '.',  '.',  '.',  '.', '.', '.', '.', '.', '.'
 | 's(3)',  '.',  '.',  '.',  '.',  '.',  '.', '.', '.', '.', '.', '.'
 |];
register_states = 
[| '.', '.', '.'
 | '.', '.', '.'
 | '.', '.', '.'
 | '.', '.', '.'
 | '.', '.', '.'
 | '.', '.', '.'
 | '.', '.', '.'
 | '.', '.', '.'
 |];
program = [O('i32.load16_s_0'), O('i32.store8_1'), O('i32.store16_2'), O('i32.store8_3'), O('i32.load8_u_4'), O('i32.load_5'), O('i32.load16_u_6')];
% time elapsed: 0.09 s
----------
==========
% time elapsed: 0.09 s
% [value > 6]
